p cnf 82 272
2 -1 0
2 1 0
-3 4 -5 0
3 -4 -5 0
-3 -4 5 0
3 4 5 0
-6 -2 0
-6 -5 0
2 5 6 0
9 10 -11 0
-9 -10 -11 0
9 -10 11 0
-9 10 11 0
-9 -11 -12 0
9 11 -12 0
-9 11 12 0
9 -11 12 0
14 12 0
14 -13 0
-12 13 -14 0
-16 14 0
-16 15 0
-14 -15 16 0
-11 16 -17 0
11 -16 -17 0
-11 -16 17 0
11 16 17 0
-8 -17 -18 0
8 17 -18 0
-8 17 18 0
8 -17 18 0
-7 18 -19 0
7 -18 -19 0
-7 -18 19 0
7 18 19 0
-21 20 0
-21 12 0
-20 -12 21 0
22 -19 0
22 -21 0
19 21 -22 0
-24 23 0
-24 -20 0
-23 20 24 0
-25 -14 0
-25 -24 0
14 24 25 0
-26 22 0
-26 25 0
-22 -25 26 0
27 -6 0
27 -26 0
6 26 -27 0
-29 28 0
-29 -5 0
-28 5 29 0
30 -9 0
30 1 0
9 -1 -30 0
-30 31 -32 0
30 -31 -32 0
-30 -31 32 0
30 31 32 0
-33 -24 0
-33 -32 0
24 32 33 0
29 -33 -34 0
-29 33 -34 0
29 33 34 0
-29 -33 34 0
-35 -31 0
-35 -13 0
31 13 35 0
36 31 0
36 -35 0
-31 35 -36 0
38 -28 0
38 -37 0
28 37 -38 0
-38 14 -39 0
38 -14 -39 0
-38 -14 39 0
38 14 39 0
-40 36 0
-40 39 0
-36 -39 40 0
41 32 0
41 -16 0
-32 16 -41 0
-42 -41 0
-42 30 0
41 -30 42 0
-43 -15 0
-43 42 0
15 -42 43 0
-44 -40 0
-44 -43 0
40 43 44 0
45 -34 0
45 -44 0
34 44 -45 0
-27 -45 -46 0
27 45 -46 0
-27 45 46 0
27 -45 46 0
47 23 0
47 13 0
-23 -13 -47 0
48 -1 0
48 -10 0
1 10 -48 0
-23 -48 -49 0
23 48 -49 0
-23 48 49 0
23 -48 49 0
-47 -49 -50 0
47 49 -50 0
-47 49 50 0
47 -49 50 0
51 -46 0
51 -50 0
46 50 -51 0
-10 -24 -52 0
10 24 -52 0
-10 24 52 0
10 -24 52 0
53 -15 0
53 -8 0
15 8 -53 0
53 31 -54 0
-53 -31 -54 0
53 -31 54 0
-53 31 54 0
55 -52 0
55 -54 0
52 54 -55 0
-56 -51 0
-56 55 0
51 -55 56 0
2 11 -57 0
-2 -11 -57 0
2 -11 57 0
-2 11 57 0
58 56 0
58 -57 0
-56 57 -58 0
24 38 -59 0
-24 -38 -59 0
24 -38 59 0
-24 38 59 0
60 41 0
60 -32 0
-41 32 -60 0
-61 38 0
-61 -60 0
-38 60 61 0
-62 -59 0
-62 61 0
59 -61 62 0
15 23 -63 0
-15 -23 -63 0
15 -23 63 0
-15 23 63 0
63 31 -64 0
-63 -31 -64 0
63 -31 64 0
-63 31 64 0
-65 -62 0
-65 -64 0
62 64 65 0
58 65 -66 0
-58 -65 -66 0
58 -65 66 0
-58 65 66 0
67 30 0
67 48 0
-30 -48 -67 0
13 60 -68 0
-13 -60 -68 0
13 -60 68 0
-13 60 68 0
-67 -68 -69 0
67 68 -69 0
-67 68 69 0
67 -68 69 0
-70 20 0
-70 -24 0
-20 24 70 0
-71 8 0
-71 -53 0
-8 53 71 0
72 70 0
72 -71 0
-70 71 -72 0
-73 -23 0
-73 14 0
23 -14 73 0
74 4 0
74 73 0
-4 -73 -74 0
72 74 -75 0
-72 -74 -75 0
72 -74 75 0
-72 74 75 0
76 -20 0
76 24 0
20 -24 -76 0
77 -76 0
77 63 0
76 -63 -77 0
15 10 -78 0
-15 -10 -78 0
15 -10 78 0
-15 10 78 0
79 77 0
79 78 0
-77 -78 -79 0
80 75 0
80 -79 0
-75 79 -80 0
-81 -69 0
-81 -80 0
69 80 81 0
82 -66 0
82 -81 0
66 81 -82 0
27 36 53 0
31 75 10 0
64 -53 -35 0
-53 -21 38 0
-45 -36 0
28 22 -5 -23 -46 0
-66 -57 32 55 0
-22 35 80 72 -15 0
73 -16 -4 25 -53 0
1 20 -4 -57 -35 0
19 -81 -68 -57 0
-66 20 0
81 -17 0
-51 44 59 -1 24 15 0
69 81 30 0
79 75 45 -15 -3 0
80 -31 52 0
-81 42 -38 65 2 -58 0
16 79 -53 -5 0
-44 31 0
80 45 -25 -82 56 0
77 -68 -63 49 5 -30 0
-71 77 43 76 -62 0
-48 49 -12 66 -71 -64 0
-24 -19 -77 0
-37 40 61 55 30 0
56 -70 68 0
-12 -66 0
57 48 -29 0
-54 71 -58 1 -78 0
-30 -44 80 -79 -62 0
-78 79 -27 -20 -7 0
71 17 -62 -23 -72 0
80 71 -65 -62 0
-19 -9 -3 4 0
39 -8 55 0
42 38 0
27 58 -31 -56 46 0
33 -39 75 65 0
57 65 1 0
81 27 -11 0
33 51 35 28 0
69 -18 0
-74 -12 21 0
-60 46 0
82 0
